unsat
(:max-memory         18.05
 :memory             18.05
 :nlsat-conflicts    2
 :nlsat-propagations 9
 :nlsat-stages       3
 :num-allocs         22482
 :rlimit-count       3945
 :time               0.00
 :total-time         0.01)
